sat
(:added-eqs                       26897
 :arith-eq-adapter                1435
 :arith-bound-propagations-lp     2822
 :arith-branch                    507
 :arith-conflicts                 4039
 :arith-cube-calls                155
 :arith-diseq                     15976
 :arith-fixed-eqs                 5674
 :arith-gcd-calls                 875
 :arith-gomory-cuts               150
 :arith-grobner-calls             463
 :arith-grobner-conflicts         175
 :arith-hnf-calls                 1
 :arith-horner-calls              117
 :arith-horner-conflicts          2
 :arith-horner-cross-nested-forms 16759
 :arith-lower                     17040
 :arith-make-feasible             12073
 :arith-max-columns               1314
 :arith-max-rows                  707
 :arith-nla-add-bounds            87
 :arith-nla-lemmas                2194
 :arith-nla-propagate-bounds      1343
 :arith-nla-propagate-eq          16608
 :arith-nra-calls                 30
 :arith-offset-eqs                9345
 :arith-patches                   875
 :arith-patches-success           275
 :arith-upper                     19070
 :binary-propagations             71955
 :cnf-encoding-aux-vars           12
 :conflicts                       735
 :decisions                       178209
 :del-clause                      5113
 :elim-unconstrained              114
 :final-checks                    1566
 :max-memory                      37.59
 :memory                          19.63
 :minimized-lits                  4490
 :mk-bool-var                     11930
 :mk-clause                       7937
 :mk-clause-binary                16897
 :nlsat-conflicts                 2
 :nlsat-decisions                 317
 :nlsat-propagations              17816
 :nlsat-stages                    4842
 :num-allocs                      2100294530
 :num-checks                      1
 :propagations                    117075
 :restarts                        6
 :rlimit-count                    4399302
 :solve-eqs-elim-vars             109
 :solve-eqs-steps                 1262
 :time                            2.12
 :total-time                      2.14)
